
%FILE DATA:	Soccer Computational Problem for MiniZinc Models	%
%AUTHOR:	Jack Wall	%
%CONTACT:  	116397063@umail.ucc.ie			%
%LAST UPDATE:	03/19/2020, 15:21:50						%
%DESCRIPTION: 	229 games played with 43 games left				%


n=17; %number of teams

%Games to play
games=[|11,10|5,1|6,4|17,9|6,7|11,3|13,10|11,7|1,13|16,1|10,13|13,15|6,17|16,7|15,2|12,4|17,4|4,15|4,16|3,17|8,5|1,10|6,9|12,1|9,12|7,4|8,1|14,4|3,12|5,15|10,3|12,17|14,12|7,6|14,8|15,5|10,15|4,2|9,5|9,13|17,8|10,1|7,8|];

%Initial points
iPoints=[34,46,43,34,42,39,31,39,39,42,37,18,40,30,35,39,25];

%POSITION CONSTRAINTS
% [|teamID, operator, position|...]
% operators index:
%  1 for =  operator
%  2 for >  operator
%  3 for >= operator
%  4 for <  operator
%  5 for <= operator
positionConstraints=[|5,4,2|3,5,2|];